NAME: 1040.vrp-C209-R5
TYPE: SoftCluVRP
DIMENSION:  1041 
VEHICLES:  11 
GVRP_SETS:  209 
CAPACITY:  2100 
EDGE_WEIGHT_TYPE: EUC_2D
NODE_COORD_SECTION 
1 0.000000 0.000000
2 30.000000 0.000000
3 29.630699 4.693000
4 28.531700 9.270500
5 26.730200 13.619700
6 24.270500 17.633600
7 21.213200 21.213200
8 17.633600 24.270500
9 13.619700 26.730200
10 9.270500 28.531700
11 4.693000 29.630699
12 0.000000 30.000000
13 -4.693000 29.630699
14 -9.270500 28.531700
15 -13.619700 26.730200
16 -17.633600 24.270500
17 -21.213200 21.213200
18 -24.270500 17.633600
19 -26.730200 13.619700
20 -28.531700 9.270500
21 -29.630699 4.693000
22 -30.000000 0.000000
23 -29.630699 -4.693000
24 -28.531700 -9.270500
25 -26.730200 -13.619700
26 -24.270500 -17.633600
27 -21.213200 -21.213200
28 -17.633600 -24.270500
29 -13.619700 -26.730200
30 -9.270500 -28.531700
31 -4.693000 -29.630699
32 -0.000000 -30.000000
33 4.693000 -29.630699
34 9.270500 -28.531700
35 13.619700 -26.730200
36 17.633600 -24.270500
37 21.213200 -21.213200
38 24.270500 -17.633600
39 26.730200 -13.619700
40 28.531700 -9.270500
41 29.630699 -4.693000
42 60.000000 0.000000
43 59.261299 9.386100
44 57.063400 18.541000
45 53.460400 27.239401
46 48.541000 35.267101
47 42.426399 42.426399
48 35.267101 48.541000
49 27.239401 53.460400
50 18.541000 57.063400
51 9.386100 59.261299
52 0.000000 60.000000
53 -9.386100 59.261299
54 -18.541000 57.063400
55 -27.239401 53.460400
56 -35.267101 48.541000
57 -42.426399 42.426399
58 -48.541000 35.267101
59 -53.460400 27.239401
60 -57.063400 18.541000
61 -59.261299 9.386100
62 -60.000000 0.000000
63 -59.261299 -9.386100
64 -57.063400 -18.541000
65 -53.460400 -27.239401
66 -48.541000 -35.267101
67 -42.426399 -42.426399
68 -35.267101 -48.541000
69 -27.239401 -53.460400
70 -18.541000 -57.063400
71 -9.386100 -59.261299
72 -0.000000 -60.000000
73 9.386100 -59.261299
74 18.541000 -57.063400
75 27.239401 -53.460400
76 35.267101 -48.541000
77 42.426399 -42.426399
78 48.541000 -35.267101
79 53.460400 -27.239401
80 57.063400 -18.541000
81 59.261299 -9.386100
82 90.000000 0.000000
83 88.891998 14.079100
84 85.595100 27.811501
85 80.190598 40.859100
86 72.811501 52.900700
87 63.639599 63.639599
88 52.900700 72.811501
89 40.859100 80.190598
90 27.811501 85.595100
91 14.079100 88.891998
92 0.000000 90.000000
93 -14.079100 88.891998
94 -27.811501 85.595100
95 -40.859100 80.190598
96 -52.900700 72.811501
97 -63.639599 63.639599
98 -72.811501 52.900700
99 -80.190598 40.859100
100 -85.595100 27.811501
101 -88.891998 14.079100
102 -90.000000 0.000000
103 -88.891998 -14.079100
104 -85.595100 -27.811501
105 -80.190598 -40.859100
106 -72.811501 -52.900700
107 -63.639599 -63.639599
108 -52.900700 -72.811501
109 -40.859100 -80.190598
110 -27.811501 -85.595100
111 -14.079100 -88.891998
112 -0.000000 -90.000000
113 14.079100 -88.891998
114 27.811501 -85.595100
115 40.859100 -80.190598
116 52.900700 -72.811501
117 63.639599 -63.639599
118 72.811501 -52.900700
119 80.190598 -40.859100
120 85.595100 -27.811501
121 88.891998 -14.079100
122 120.000000 0.000000
123 118.522598 18.772100
124 114.126801 37.082001
125 106.920799 54.478901
126 97.082001 70.534203
127 84.852798 84.852798
128 70.534203 97.082001
129 54.478901 106.920799
130 37.082001 114.126801
131 18.772100 118.522598
132 0.000000 120.000000
133 -18.772100 118.522598
134 -37.082001 114.126801
135 -54.478901 106.920799
136 -70.534203 97.082001
137 -84.852798 84.852798
138 -97.082001 70.534203
139 -106.920799 54.478901
140 -114.126801 37.082001
141 -118.522598 18.772100
142 -120.000000 0.000000
143 -118.522598 -18.772100
144 -114.126801 -37.082001
145 -106.920799 -54.478901
146 -97.082001 -70.534203
147 -84.852798 -84.852798
148 -70.534203 -97.082001
149 -54.478901 -106.920799
150 -37.082001 -114.126801
151 -18.772100 -118.522598
152 -0.000000 -120.000000
153 18.772100 -118.522598
154 37.082001 -114.126801
155 54.478901 -106.920799
156 70.534203 -97.082001
157 84.852798 -84.852798
158 97.082001 -70.534203
159 106.920799 -54.478901
160 114.126801 -37.082001
161 118.522598 -18.772100
162 150.000000 0.000000
163 148.153305 23.465200
164 142.658493 46.352501
165 133.651001 68.098602
166 121.352501 88.167801
167 106.066002 106.066002
168 88.167801 121.352501
169 68.098602 133.651001
170 46.352501 142.658493
171 23.465200 148.153305
172 0.000000 150.000000
173 -23.465200 148.153305
174 -46.352501 142.658493
175 -68.098602 133.651001
176 -88.167801 121.352501
177 -106.066002 106.066002
178 -121.352501 88.167801
179 -133.651001 68.098602
180 -142.658493 46.352501
181 -148.153305 23.465200
182 -150.000000 0.000000
183 -148.153305 -23.465200
184 -142.658493 -46.352501
185 -133.651001 -68.098602
186 -121.352501 -88.167801
187 -106.066002 -106.066002
188 -88.167801 -121.352501
189 -68.098602 -133.651001
190 -46.352501 -142.658493
191 -23.465200 -148.153305
192 -0.000000 -150.000000
193 23.465200 -148.153305
194 46.352501 -142.658493
195 68.098602 -133.651001
196 88.167801 -121.352501
197 106.066002 -106.066002
198 121.352501 -88.167801
199 133.651001 -68.098602
200 142.658493 -46.352501
201 148.153305 -23.465200
202 180.000000 0.000000
203 177.783905 28.158199
204 171.190201 55.623100
205 160.381195 81.718300
206 145.623093 105.801300
207 127.279198 127.279198
208 105.801300 145.623093
209 81.718300 160.381195
210 55.623100 171.190201
211 28.158199 177.783905
212 0.000000 180.000000
213 -28.158199 177.783905
214 -55.623100 171.190201
215 -81.718300 160.381195
216 -105.801300 145.623093
217 -127.279198 127.279198
218 -145.623093 105.801300
219 -160.381195 81.718300
220 -171.190201 55.623100
221 -177.783905 28.158199
222 -180.000000 0.000000
223 -177.783905 -28.158199
224 -171.190201 -55.623100
225 -160.381195 -81.718300
226 -145.623093 -105.801300
227 -127.279198 -127.279198
228 -105.801300 -145.623093
229 -81.718300 -160.381195
230 -55.623100 -171.190201
231 -28.158199 -177.783905
232 -0.000000 -180.000000
233 28.158199 -177.783905
234 55.623100 -171.190201
235 81.718300 -160.381195
236 105.801300 -145.623093
237 127.279198 -127.279198
238 145.623093 -105.801300
239 160.381195 -81.718300
240 171.190201 -55.623100
241 177.783905 -28.158199
242 210.000000 0.000000
243 207.414597 32.851200
244 199.721893 64.893600
245 187.111404 95.337997
246 169.893600 123.434898
247 148.492401 148.492401
248 123.434898 169.893600
249 95.337997 187.111404
250 64.893600 199.721893
251 32.851200 207.414597
252 0.000000 210.000000
253 -32.851200 207.414597
254 -64.893600 199.721893
255 -95.337997 187.111404
256 -123.434898 169.893600
257 -148.492401 148.492401
258 -169.893600 123.434898
259 -187.111404 95.337997
260 -199.721893 64.893600
261 -207.414597 32.851200
262 -210.000000 0.000000
263 -207.414597 -32.851200
264 -199.721893 -64.893600
265 -187.111404 -95.337997
266 -169.893600 -123.434898
267 -148.492401 -148.492401
268 -123.434898 -169.893600
269 -95.337997 -187.111404
270 -64.893600 -199.721893
271 -32.851200 -207.414597
272 -0.000000 -210.000000
273 32.851200 -207.414597
274 64.893600 -199.721893
275 95.337997 -187.111404
276 123.434898 -169.893600
277 148.492401 -148.492401
278 169.893600 -123.434898
279 187.111404 -95.337997
280 199.721893 -64.893600
281 207.414597 -32.851200
282 240.000000 0.000000
283 237.045197 37.544300
284 228.253601 74.164101
285 213.841599 108.957703
286 194.164093 141.068497
287 169.705597 169.705597
288 141.068497 194.164093
289 108.957703 213.841599
290 74.164101 228.253601
291 37.544300 237.045197
292 0.000000 240.000000
293 -37.544300 237.045197
294 -74.164101 228.253601
295 -108.957703 213.841599
296 -141.068497 194.164093
297 -169.705597 169.705597
298 -194.164093 141.068497
299 -213.841599 108.957703
300 -228.253601 74.164101
301 -237.045197 37.544300
302 -240.000000 0.000000
303 -237.045197 -37.544300
304 -228.253601 -74.164101
305 -213.841599 -108.957703
306 -194.164093 -141.068497
307 -169.705597 -169.705597
308 -141.068497 -194.164093
309 -108.957703 -213.841599
310 -74.164101 -228.253601
311 -37.544300 -237.045197
312 -0.000000 -240.000000
313 37.544300 -237.045197
314 74.164101 -228.253601
315 108.957703 -213.841599
316 141.068497 -194.164093
317 169.705597 -169.705597
318 194.164093 -141.068497
319 213.841599 -108.957703
320 228.253601 -74.164101
321 237.045197 -37.544300
322 270.000000 0.000000
323 266.675903 42.237301
324 256.785309 83.434601
325 240.571793 122.577400
326 218.434601 158.701996
327 190.918793 190.918793
328 158.701996 218.434601
329 122.577400 240.571793
330 83.434601 256.785309
331 42.237301 266.675903
332 0.000000 270.000000
333 -42.237301 266.675903
334 -83.434601 256.785309
335 -122.577400 240.571793
336 -158.701996 218.434601
337 -190.918793 190.918793
338 -218.434601 158.701996
339 -240.571793 122.577400
340 -256.785309 83.434601
341 -266.675903 42.237301
342 -270.000000 0.000000
343 -266.675903 -42.237301
344 -256.785309 -83.434601
345 -240.571793 -122.577400
346 -218.434601 -158.701996
347 -190.918793 -190.918793
348 -158.701996 -218.434601
349 -122.577400 -240.571793
350 -83.434601 -256.785309
351 -42.237301 -266.675903
352 -0.000000 -270.000000
353 42.237301 -266.675903
354 83.434601 -256.785309
355 122.577400 -240.571793
356 158.701996 -218.434601
357 190.918793 -190.918793
358 218.434601 -158.701996
359 240.571793 -122.577400
360 256.785309 -83.434601
361 266.675903 -42.237301
362 300.000000 0.000000
363 296.306488 46.930302
364 285.316986 92.705101
365 267.302002 136.197098
366 242.705093 176.335602
367 212.132004 212.132004
368 176.335602 242.705093
369 136.197098 267.302002
370 92.705101 285.316986
371 46.930302 296.306488
372 0.000000 300.000000
373 -46.930302 296.306488
374 -92.705101 285.316986
375 -136.197098 267.302002
376 -176.335602 242.705093
377 -212.132004 212.132004
378 -242.705093 176.335602
379 -267.302002 136.197098
380 -285.316986 92.705101
381 -296.306488 46.930302
382 -300.000000 0.000000
383 -296.306488 -46.930302
384 -285.316986 -92.705101
385 -267.302002 -136.197098
386 -242.705093 -176.335602
387 -212.132004 -212.132004
388 -176.335602 -242.705093
389 -136.197098 -267.302002
390 -92.705101 -285.316986
391 -46.930302 -296.306488
392 -0.000000 -300.000000
393 46.930302 -296.306488
394 92.705101 -285.316986
395 136.197098 -267.302002
396 176.335602 -242.705093
397 212.132004 -212.132004
398 242.705093 -176.335602
399 267.302002 -136.197098
400 285.316986 -92.705101
401 296.306488 -46.930302
402 330.000000 0.000000
403 325.937195 51.623402
404 313.848694 101.975601
405 294.032196 149.816895
406 266.975586 193.969101
407 233.345200 233.345200
408 193.969101 266.975586
409 149.816895 294.032196
410 101.975601 313.848694
411 51.623402 325.937195
412 0.000000 330.000000
413 -51.623402 325.937195
414 -101.975601 313.848694
415 -149.816895 294.032196
416 -193.969101 266.975586
417 -233.345200 233.345200
418 -266.975586 193.969101
419 -294.032196 149.816895
420 -313.848694 101.975601
421 -325.937195 51.623402
422 -330.000000 0.000000
423 -325.937195 -51.623402
424 -313.848694 -101.975601
425 -294.032196 -149.816895
426 -266.975586 -193.969101
427 -233.345200 -233.345200
428 -193.969101 -266.975586
429 -149.816895 -294.032196
430 -101.975601 -313.848694
431 -51.623402 -325.937195
432 -0.000000 -330.000000
433 51.623402 -325.937195
434 101.975601 -313.848694
435 149.816895 -294.032196
436 193.969101 -266.975586
437 233.345200 -233.345200
438 266.975586 -193.969101
439 294.032196 -149.816895
440 313.848694 -101.975601
441 325.937195 -51.623402
442 360.000000 0.000000
443 355.567810 56.316399
444 342.380310 111.246101
445 320.762299 163.436600
446 291.246094 211.602707
447 254.558395 254.558395
448 211.602707 291.246094
449 163.436600 320.762299
450 111.246101 342.380310
451 56.316399 355.567810
452 0.000000 360.000000
453 -56.316399 355.567810
454 -111.246101 342.380310
455 -163.436600 320.762299
456 -211.602707 291.246094
457 -254.558395 254.558395
458 -291.246094 211.602707
459 -320.762299 163.436600
460 -342.380310 111.246101
461 -355.567810 56.316399
462 -360.000000 0.000000
463 -355.567810 -56.316399
464 -342.380310 -111.246101
465 -320.762299 -163.436600
466 -291.246094 -211.602707
467 -254.558395 -254.558395
468 -211.602707 -291.246094
469 -163.436600 -320.762299
470 -111.246101 -342.380310
471 -56.316399 -355.567810
472 -0.000000 -360.000000
473 56.316399 -355.567810
474 111.246101 -342.380310
475 163.436600 -320.762299
476 211.602707 -291.246094
477 254.558395 -254.558395
478 291.246094 -211.602707
479 320.762299 -163.436600
480 342.380310 -111.246101
481 355.567810 -56.316399
482 390.000000 0.000000
483 385.198486 61.009399
484 370.911987 120.516602
485 347.492493 177.056305
486 315.516602 229.236206
487 275.771606 275.771606
488 229.236206 315.516602
489 177.056305 347.492493
490 120.516602 370.911987
491 61.009399 385.198486
492 0.000000 390.000000
493 -61.009399 385.198486
494 -120.516602 370.911987
495 -177.056305 347.492493
496 -229.236206 315.516602
497 -275.771606 275.771606
498 -315.516602 229.236206
499 -347.492493 177.056305
500 -370.911987 120.516602
501 -385.198486 61.009399
502 -390.000000 0.000000
503 -385.198486 -61.009399
504 -370.911987 -120.516602
505 -347.492493 -177.056305
506 -315.516602 -229.236206
507 -275.771606 -275.771606
508 -229.236206 -315.516602
509 -177.056305 -347.492493
510 -120.516602 -370.911987
511 -61.009399 -385.198486
512 -0.000000 -390.000000
513 61.009399 -385.198486
514 120.516602 -370.911987
515 177.056305 -347.492493
516 229.236206 -315.516602
517 275.771606 -275.771606
518 315.516602 -229.236206
519 347.492493 -177.056305
520 370.911987 -120.516602
521 385.198486 -61.009399
522 420.000000 0.000000
523 414.829102 65.702499
524 399.443695 129.787094
525 374.222687 190.675995
526 339.787109 246.869797
527 296.984802 296.984802
528 246.869797 339.787109
529 190.675995 374.222687
530 129.787094 399.443695
531 65.702499 414.829102
532 0.000000 420.000000
533 -65.702499 414.829102
534 -129.787094 399.443695
535 -190.675995 374.222687
536 -246.869797 339.787109
537 -296.984802 296.984802
538 -339.787109 246.869797
539 -374.222687 190.675995
540 -399.443695 129.787094
541 -414.829102 65.702499
542 -420.000000 0.000000
543 -414.829102 -65.702499
544 -399.443695 -129.787094
545 -374.222687 -190.675995
546 -339.787109 -246.869797
547 -296.984802 -296.984802
548 -246.869797 -339.787109
549 -190.675995 -374.222687
550 -129.787094 -399.443695
551 -65.702499 -414.829102
552 -0.000000 -420.000000
553 65.702499 -414.829102
554 129.787094 -399.443695
555 190.675995 -374.222687
556 246.869797 -339.787109
557 296.984802 -296.984802
558 339.787109 -246.869797
559 374.222687 -190.675995
560 399.443695 -129.787094
561 414.829102 -65.702499
562 450.000000 0.000000
563 444.459808 70.395500
564 427.975403 139.057602
565 400.952911 204.295700
566 364.057587 264.503387
567 318.198090 318.198090
568 264.503387 364.057587
569 204.295700 400.952911
570 139.057602 427.975403
571 70.395500 444.459808
572 0.000000 450.000000
573 -70.395500 444.459808
574 -139.057602 427.975403
575 -204.295700 400.952911
576 -264.503387 364.057587
577 -318.198090 318.198090
578 -364.057587 264.503387
579 -400.952911 204.295700
580 -427.975403 139.057602
581 -444.459808 70.395500
582 -450.000000 0.000000
583 -444.459808 -70.395500
584 -427.975403 -139.057602
585 -400.952911 -204.295700
586 -364.057587 -264.503387
587 -318.198090 -318.198090
588 -264.503387 -364.057587
589 -204.295700 -400.952911
590 -139.057602 -427.975403
591 -70.395500 -444.459808
592 -0.000000 -450.000000
593 70.395500 -444.459808
594 139.057602 -427.975403
595 204.295700 -400.952911
596 264.503387 -364.057587
597 318.198090 -318.198090
598 364.057587 -264.503387
599 400.952911 -204.295700
600 427.975403 -139.057602
601 444.459808 -70.395500
602 480.000000 0.000000
603 474.090393 75.088501
604 456.507111 148.328201
605 427.683105 217.915405
606 388.328186 282.136902
607 339.411285 339.411285
608 282.136902 388.328186
609 217.915405 427.683105
610 148.328201 456.507111
611 75.088501 474.090393
612 0.000000 480.000000
613 -75.088501 474.090393
614 -148.328201 456.507111
615 -217.915405 427.683105
616 -282.136902 388.328186
617 -339.411285 339.411285
618 -388.328186 282.136902
619 -427.683105 217.915405
620 -456.507111 148.328201
621 -474.090393 75.088501
622 -480.000000 0.000000
623 -474.090393 -75.088501
624 -456.507111 -148.328201
625 -427.683105 -217.915405
626 -388.328186 -282.136902
627 -339.411285 -339.411285
628 -282.136902 -388.328186
629 -217.915405 -427.683105
630 -148.328201 -456.507111
631 -75.088501 -474.090393
632 -0.000000 -480.000000
633 75.088501 -474.090393
634 148.328201 -456.507111
635 217.915405 -427.683105
636 282.136902 -388.328186
637 339.411285 -339.411285
638 388.328186 -282.136902
639 427.683105 -217.915405
640 456.507111 -148.328201
641 474.090393 -75.088501
642 510.000000 0.000000
643 503.721100 79.781601
644 485.038788 157.598694
645 454.413300 231.535202
646 412.598694 299.770508
647 360.624512 360.624512
648 299.770508 412.598694
649 231.535202 454.413300
650 157.598694 485.038788
651 79.781601 503.721100
652 0.000000 510.000000
653 -79.781601 503.721100
654 -157.598694 485.038788
655 -231.535202 454.413300
656 -299.770508 412.598694
657 -360.624512 360.624512
658 -412.598694 299.770508
659 -454.413300 231.535202
660 -485.038788 157.598694
661 -503.721100 79.781601
662 -510.000000 0.000000
663 -503.721100 -79.781601
664 -485.038788 -157.598694
665 -454.413300 -231.535202
666 -412.598694 -299.770508
667 -360.624512 -360.624512
668 -299.770508 -412.598694
669 -231.535202 -454.413300
670 -157.598694 -485.038788
671 -79.781601 -503.721100
672 -0.000000 -510.000000
673 79.781601 -503.721100
674 157.598694 -485.038788
675 231.535202 -454.413300
676 299.770508 -412.598694
677 360.624512 -360.624512
678 412.598694 -299.770508
679 454.413300 -231.535202
680 485.038788 -157.598694
681 503.721100 -79.781601
682 540.000000 0.000000
683 533.351685 84.474602
684 513.570496 166.869202
685 481.143494 245.154907
686 436.869202 317.403992
687 381.837708 381.837708
688 317.403992 436.869202
689 245.154907 481.143494
690 166.869202 513.570496
691 84.474602 533.351685
692 0.000000 540.000000
693 -84.474602 533.351685
694 -166.869202 513.570496
695 -245.154907 481.143494
696 -317.403992 436.869202
697 -381.837708 381.837708
698 -436.869202 317.403992
699 -481.143494 245.154907
700 -513.570496 166.869202
701 -533.351685 84.474602
702 -540.000000 0.000000
703 -533.351685 -84.474602
704 -513.570496 -166.869202
705 -481.143494 -245.154907
706 -436.869202 -317.403992
707 -381.837708 -381.837708
708 -317.403992 -436.869202
709 -245.154907 -481.143494
710 -166.869202 -513.570496
711 -84.474602 -533.351685
712 -0.000000 -540.000000
713 84.474602 -533.351685
714 166.869202 -513.570496
715 245.154907 -481.143494
716 317.403992 -436.869202
717 381.837708 -381.837708
718 436.869202 -317.403992
719 481.143494 -245.154907
720 513.570496 -166.869202
721 533.351685 -84.474602
722 570.000000 0.000000
723 562.982422 89.167603
724 542.102173 176.139694
725 507.873688 258.774597
726 461.139709 335.037598
727 403.050903 403.050903
728 335.037598 461.139709
729 258.774597 507.873688
730 176.139694 542.102173
731 89.167603 562.982422
732 0.000000 570.000000
733 -89.167603 562.982422
734 -176.139694 542.102173
735 -258.774597 507.873688
736 -335.037598 461.139709
737 -403.050903 403.050903
738 -461.139709 335.037598
739 -507.873688 258.774597
740 -542.102173 176.139694
741 -562.982422 89.167603
742 -570.000000 0.000000
743 -562.982422 -89.167603
744 -542.102173 -176.139694
745 -507.873688 -258.774597
746 -461.139709 -335.037598
747 -403.050903 -403.050903
748 -335.037598 -461.139709
749 -258.774597 -507.873688
750 -176.139694 -542.102173
751 -89.167603 -562.982422
752 -0.000000 -570.000000
753 89.167603 -562.982422
754 176.139694 -542.102173
755 258.774597 -507.873688
756 335.037598 -461.139709
757 403.050903 -403.050903
758 461.139709 -335.037598
759 507.873688 -258.774597
760 542.102173 -176.139694
761 562.982422 -89.167603
762 600.000000 0.000000
763 592.612976 93.860703
764 570.633911 185.410202
765 534.603882 272.394287
766 485.410187 352.671204
767 424.264099 424.264099
768 352.671204 485.410187
769 272.394287 534.603882
770 185.410202 570.633911
771 93.860703 592.612976
772 0.000000 600.000000
773 -93.860703 592.612976
774 -185.410202 570.633911
775 -272.394287 534.603882
776 -352.671204 485.410187
777 -424.264099 424.264099
778 -485.410187 352.671204
779 -534.603882 272.394287
780 -570.633911 185.410202
781 -592.612976 93.860703
782 -600.000000 0.000000
783 -592.612976 -93.860703
784 -570.633911 -185.410202
785 -534.603882 -272.394287
786 -485.410187 -352.671204
787 -424.264099 -424.264099
788 -352.671204 -485.410187
789 -272.394287 -534.603882
790 -185.410202 -570.633911
791 -93.860703 -592.612976
792 -0.000000 -600.000000
793 93.860703 -592.612976
794 185.410202 -570.633911
795 272.394287 -534.603882
796 352.671204 -485.410187
797 424.264099 -424.264099
798 485.410187 -352.671204
799 534.603882 -272.394287
800 570.633911 -185.410202
801 592.612976 -93.860703
802 630.000000 0.000000
803 622.243713 98.553703
804 599.165588 194.680695
805 561.334106 286.014008
806 509.680695 370.304688
807 445.477295 445.477295
808 370.304688 509.680695
809 286.014008 561.334106
810 194.680695 599.165588
811 98.553703 622.243713
812 0.000000 630.000000
813 -98.553703 622.243713
814 -194.680695 599.165588
815 -286.014008 561.334106
816 -370.304688 509.680695
817 -445.477295 445.477295
818 -509.680695 370.304688
819 -561.334106 286.014008
820 -599.165588 194.680695
821 -622.243713 98.553703
822 -630.000000 0.000000
823 -622.243713 -98.553703
824 -599.165588 -194.680695
825 -561.334106 -286.014008
826 -509.680695 -370.304688
827 -445.477295 -445.477295
828 -370.304688 -509.680695
829 -286.014008 -561.334106
830 -194.680695 -599.165588
831 -98.553703 -622.243713
832 -0.000000 -630.000000
833 98.553703 -622.243713
834 194.680695 -599.165588
835 286.014008 -561.334106
836 370.304688 -509.680695
837 445.477295 -445.477295
838 509.680695 -370.304688
839 561.334106 -286.014008
840 599.165588 -194.680695
841 622.243713 -98.553703
842 660.000000 0.000000
843 651.874329 103.246696
844 627.697327 203.951202
845 588.064270 299.633698
846 533.951172 387.938293
847 466.690491 466.690491
848 387.938293 533.951172
849 299.633698 588.064270
850 203.951202 627.697327
851 103.246696 651.874329
852 0.000000 660.000000
853 -103.246696 651.874329
854 -203.951202 627.697327
855 -299.633698 588.064270
856 -387.938293 533.951172
857 -466.690491 466.690491
858 -533.951172 387.938293
859 -588.064270 299.633698
860 -627.697327 203.951202
861 -651.874329 103.246696
862 -660.000000 0.000000
863 -651.874329 -103.246696
864 -627.697327 -203.951202
865 -588.064270 -299.633698
866 -533.951172 -387.938293
867 -466.690491 -466.690491
868 -387.938293 -533.951172
869 -299.633698 -588.064270
870 -203.951202 -627.697327
871 -103.246696 -651.874329
872 -0.000000 -660.000000
873 103.246696 -651.874329
874 203.951202 -627.697327
875 299.633698 -588.064270
876 387.938293 -533.951172
877 466.690491 -466.690491
878 533.951172 -387.938293
879 588.064270 -299.633698
880 627.697327 -203.951202
881 651.874329 -103.246696
882 690.000000 0.000000
883 681.505005 107.939796
884 656.229004 213.221695
885 614.794495 313.253387
886 558.221680 405.571808
887 487.903687 487.903687
888 405.571808 558.221680
889 313.253387 614.794495
890 213.221695 656.229004
891 107.939796 681.505005
892 0.000000 690.000000
893 -107.939796 681.505005
894 -213.221695 656.229004
895 -313.253387 614.794495
896 -405.571808 558.221680
897 -487.903687 487.903687
898 -558.221680 405.571808
899 -614.794495 313.253387
900 -656.229004 213.221695
901 -681.505005 107.939796
902 -690.000000 0.000000
903 -681.505005 -107.939796
904 -656.229004 -213.221695
905 -614.794495 -313.253387
906 -558.221680 -405.571808
907 -487.903687 -487.903687
908 -405.571808 -558.221680
909 -313.253387 -614.794495
910 -213.221695 -656.229004
911 -107.939796 -681.505005
912 -0.000000 -690.000000
913 107.939796 -681.505005
914 213.221695 -656.229004
915 313.253387 -614.794495
916 405.571808 -558.221680
917 487.903687 -487.903687
918 558.221680 -405.571808
919 614.794495 -313.253387
920 656.229004 -213.221695
921 681.505005 -107.939796
922 720.000000 0.000000
923 711.135620 112.632797
924 684.760681 222.492203
925 641.524719 326.873199
926 582.492188 423.205414
927 509.116913 509.116913
928 423.205414 582.492188
929 326.873199 641.524719
930 222.492203 684.760681
931 112.632797 711.135620
932 0.000000 720.000000
933 -112.632797 711.135620
934 -222.492203 684.760681
935 -326.873199 641.524719
936 -423.205414 582.492188
937 -509.116913 509.116913
938 -582.492188 423.205414
939 -641.524719 326.873199
940 -684.760681 222.492203
941 -711.135620 112.632797
942 -720.000000 0.000000
943 -711.135620 -112.632797
944 -684.760681 -222.492203
945 -641.524719 -326.873199
946 -582.492188 -423.205414
947 -509.116913 -509.116913
948 -423.205414 -582.492188
949 -326.873199 -641.524719
950 -222.492203 -684.760681
951 -112.632797 -711.135620
952 -0.000000 -720.000000
953 112.632797 -711.135620
954 222.492203 -684.760681
955 326.873199 -641.524719
956 423.205414 -582.492188
957 509.116913 -509.116913
958 582.492188 -423.205414
959 641.524719 -326.873199
960 684.760681 -222.492203
961 711.135620 -112.632797
962 750.000000 0.000000
963 740.766296 117.325798
964 713.292419 231.762695
965 668.254883 340.492889
966 606.762695 440.838898
967 530.330078 530.330078
968 440.838898 606.762695
969 340.492889 668.254883
970 231.762695 713.292419
971 117.325798 740.766296
972 0.000000 750.000000
973 -117.325798 740.766296
974 -231.762695 713.292419
975 -340.492889 668.254883
976 -440.838898 606.762695
977 -530.330078 530.330078
978 -606.762695 440.838898
979 -668.254883 340.492889
980 -713.292419 231.762695
981 -740.766296 117.325798
982 -750.000000 0.000000
983 -740.766296 -117.325798
984 -713.292419 -231.762695
985 -668.254883 -340.492889
986 -606.762695 -440.838898
987 -530.330078 -530.330078
988 -440.838898 -606.762695
989 -340.492889 -668.254883
990 -231.762695 -713.292419
991 -117.325798 -740.766296
992 -0.000000 -750.000000
993 117.325798 -740.766296
994 231.762695 -713.292419
995 340.492889 -668.254883
996 440.838898 -606.762695
997 530.330078 -530.330078
998 606.762695 -440.838898
999 668.254883 -340.492889
1000 713.292419 -231.762695
1001 740.766296 -117.325798
1002 780.000000 0.000000
1003 770.396912 122.018898
1004 741.824097 241.033295
1005 694.985107 354.112610
1006 631.033325 458.472504
1007 551.543274 551.543274
1008 458.472504 631.033325
1009 354.112610 694.985107
1010 241.033295 741.824097
1011 122.018898 770.396912
1012 0.000000 780.000000
1013 -122.018898 770.396912
1014 -241.033295 741.824097
1015 -354.112610 694.985107
1016 -458.472504 631.033325
1017 -551.543274 551.543274
1018 -631.033325 458.472504
1019 -694.985107 354.112610
1020 -741.824097 241.033295
1021 -770.396912 122.018898
1022 -780.000000 0.000000
1023 -770.396912 -122.018898
1024 -741.824097 -241.033295
1025 -694.985107 -354.112610
1026 -631.033325 -458.472504
1027 -551.543274 -551.543274
1028 -458.472504 -631.033325
1029 -354.112610 -694.985107
1030 -241.033295 -741.824097
1031 -122.018898 -770.396912
1032 -0.000000 -780.000000
1033 122.018898 -770.396912
1034 241.033295 -741.824097
1035 354.112610 -694.985107
1036 458.472504 -631.033325
1037 551.543274 -551.543274
1038 631.033325 -458.472504
1039 694.985107 -354.112610
1040 741.824097 -241.033295
1041 770.396912 -122.018898
GVRP_SET_SECTION 
 1 1002  922  962 -1
 2  1022  942  982 -1
 3  1012  932  972 -1
 4  1032  952  992 -1
 5  7  2  3  4  5  6  8  9  10  11  12  13  14  15  16  37  38  39  40  41  42  43  44  45  46  47  48  49  50  79  80  81 -1
 6  1007  927  967 -1
 7  1017  937  977 -1
 8  1027  947  987 -1
 9  1037  957  997 -1
 10  505  465  545 -1
 11  514  474  554  594 -1
 12  534  454  494  533  574  614 -1
 13  524  444  484  523  525  564  604 -1
 14  609  529  569  649 -1
 15  619  539  579  659 -1
 16  639  559  599  679 -1
 17  709  669  749 -1
 18  864  784  824  904  944 -1
 19  874  794  834  914  954 -1
 20  845  765  805  885  925 -1
 21  855  775  815  895  935 -1
 22  298  218  257  258  259  297  299  338 -1
 23  1009  929  969 -1
 24  1019  939  979 -1
 25  1030  950  990 -1
 26  1039  959  999 -1
 27  309  268  269  308  310  348  349  350 -1
 28  318  278  317  319  357  358  359  398 -1
 29  662  622  702  742 -1
 30  327  286  287  326  328  366  367  368  407 -1
 31  756  716  796  836 -1
 32  722  642  682  762 -1
 33  732  652  692  772 -1
 34  752  672  712  792 -1
 35  786  706  746  826  866 -1
 36  292  212  251  252  253  291  293  331  332  333 -1
 37  727  647  687  767 -1
 38  737  697  777 -1
 39  303  262  263  302  304  343  344 -1
 40  511  431  471  551  591 -1
 41  481  440  441  442  480  521  561 -1
 42  810  770  850  890 -1
 43  820  780  860  900 -1
 44  838  798  878  918 -1
 45  840  800  880  920 -1
 46  1004  924  964 -1
 47  1014  934  974 -1
 48  1025  945  985 -1
 49  1035  955  995 -1
 50  243  202  203  204  242  244  282  283 -1
 51  491  451  531  571 -1
 52  497  456  457  496  537 -1
 53  508  468  548 -1
 54  517  477  557  597 -1
 55  868  828  908  948 -1
 56  461  421  460  462  501 -1
 57  527  447  487  567  607 -1
 58  193  151  152  153  154  155  191  192  194  232  233  234  273  274 -1
 59  883  843  923 -1
 60  888  808  848  928 -1
 61  893  853  933 -1
 62  898  818  858  938 -1
 63  911  871  951 -1
 64  146  104  105  106  107  108  145  147  185  186  187 -1
 65  664  624  704  744 -1
 66  375  335  374  376  415  416  455 -1
 67  724  644  684  764 -1
 68  734  654  694  774 -1
 69  931  851  891  971  1011 -1
 70  941  861  901  981  1021 -1
 71  956  876  916  996  1036 -1
 72  961  881  921  1001  1041 -1
 73  175  134  135  136  137  173  174  176  177  213  214  215  216  217 -1
 74  667  627  707  747 -1
 75  926  846  886  966  1006 -1
 76  936  856  896  976  1016 -1
 77  943  863  903  983  1023 -1
 78  949  909  989  1029 -1
 79  953  873  913  993  1033 -1
 80  986  906  946  1026 -1
 81  346  306  307  345  347  385  386 -1
 82  352  312  313  351  353  391  392 -1
 83  355  314  315  316  354  356  394  395 -1
 84  169  127  128  129  130  168  170  171  208  209  210  211 -1
 85  1010  930  970 -1
 86  1020  940  980 -1
 87  1038  958  998 -1
 88  1040  960  1000 -1
 89  503  463  543 -1
 90  449  408  409  448  450  489 -1
 91  641  601  681  721 -1
 92  674  634  714  754 -1
 93  822  782  862  902 -1
 94  830  790  870  910 -1
 95  1005  965 -1
 96  1015  975 -1
 97  1024  984 -1
 98  1028  988 -1
 99  1034  994 -1
 100  159  78  116  117  118  119  120  121  156  157  158  160  161  198  199  200  201 -1
 101  459  419  458  499 -1
 102  479  399  438  439  478  519 -1
 103  616  536  576  656  696 -1
 104  180  138  139  140  141  178  179  181  219  220  221  260  261 -1
 105  403  363  402  404  443  483 -1
 106  835  795  875  915 -1
 107  849  809  889 -1
 108  859  819  899 -1
 109  877  797  837  917 -1
 110  879  839  919 -1
 111  643  563  603  683 -1
 112  645  565  605  685  725 -1
 113  651  611  691 -1
 114  653  573  613  693 -1
 115  671  631  711 -1
 116  677  637  717  757 -1
 117  741  661  701  781  821 -1
 118  743  703  783  823 -1
 119  865  825  905 -1
 120  867  787  827  907 -1
 121  405  365  406  445  485 -1
 122  413  372  373  412  414  452  453  493 -1
 123  766  686  726  806 -1
 124  776  736  816 -1
 125  793  753  833 -1
 126  801  761  841 -1
 127  124  82  83  84  85  86  87  122  123  125  126  162  163  164  165 -1
 128  688  648  728  768 -1
 129  695  655  735 -1
 130  698  658  738  778 -1
 131  361  321  322  360  362  400  401 -1
 132  581  541  621 -1
 133  700  620  660  740 -1
 134  720  640  680  760 -1
 135  729  689  769 -1
 136  739  699  779 -1
 137  745  705  785 -1
 138  748  708  788 -1
 139  759  719  799 -1
 140  763  723  803 -1
 141  771  731  811 -1
 142  773  733  813 -1
 143  791  751  831 -1
 144  829  789  869 -1
 145  842  802  882 -1
 146  844  804  884 -1
 147  847  807  887 -1
 148  852  812  892 -1
 149  854  814  894 -1
 150  857  817  897 -1
 151  872  832  912 -1
 152  1003  963 -1
 153  1008  968 -1
 154  1013  973 -1
 155  1018  978 -1
 156  1031  991 -1
 157  572  492  532  612 -1
 158  586  506  546  626  666 -1
 159  589  509  549  629 -1
 160  592  512  552  632 -1
 161  595  515  555  635 -1
 162  690  650  730 -1
 163  715  675  755 -1
 164  718  678  758 -1
 165  71  26  27  28  29  30  31  32  33  34  35  36  66  67  68  69  70  72  73  74  75  76  77  109  110  111  112  113  114  115 -1
 166  522  482  562  602 -1
 167  560  520  600 -1
 168  289  248  249  250  288  290  329 -1
 169  340  300  301  339  341  379  380  420 -1
 170  710  670  750 -1
 171  606  566  646 -1
 172  623  583  663 -1
 173  236  195  196  197  235  237  238  275  276  277 -1
 174  424  384  423  425  464 -1
 175  429  388  389  390  428  430  469  470 -1
 176  61  17  18  19  20  21  22  23  24  25  56  57  58  59  60  62  63  64  65  97  98  99  100  101  102  103 -1
 177  673  633  713 -1
 178  570  490  530  610 -1
 179  578  498  538  618 -1
 180  598  518  558  638 -1
 181  625  585  665 -1
 182  628  588  668 -1
 183  636  556  596  676 -1
 184  206  166  167  205  207  245  246  247 -1
 185  427  387  426  466  467 -1
 186  433  393  432  434  472  473 -1
 187  436  396  397  435  437  475  476  516 -1
 188  540  500  580 -1
 189  568  488  528  608 -1
 190  575  495  535  615 -1
 191  617  577  657 -1
 192  294  254  255  295  334 -1
 193  296  256  336 -1
 194  370  330  369  371  410  411 -1
 195  377  337  378  417  418 -1
 196  382  342  381  383  422 -1
 197  92  51  52  53  54  55  88  89  90  91  93  94  95  96  131  132  133  172 -1
 198  265  225  226  264  266  267  305 -1
 199  271  231  270  272  311 -1
 200  280  239  240  241  279  281  320 -1
 201  324  284  285  323  325  364 -1
 202  590  510  550  630 -1
 203  486  446  526 -1
 204  542  502  582 -1
 205  544  504  584 -1
 206  547  507  587 -1
 207  553  513  593 -1
 208  183  142  143  144  182  184  222  223  224 -1
 209  189  148  149  150  188  190  227  228  229  230 -1
 DEMAND_SECTION
 1 30 
 2 30 
 3 90 
 4 90 
 5 640 
 6 90 
 7 30 
 8 90 
 9 30 
 10 30 
 11 40 
 12 60 
 13 190 
 14 40 
 15 120 
 16 120 
 17 30 
 18 150 
 19 50 
 20 50 
 21 150 
 22 120 
 23 30 
 24 90 
 25 30 
 26 90 
 27 140 
 28 120 
 29 40 
 30 210 
 31 120 
 32 40 
 33 120 
 34 120 
 35 50 
 36 240 
 37 120 
 38 30 
 39 170 
 40 150 
 41 110 
 42 40 
 43 120 
 44 40 
 45 120 
 46 90 
 47 30 
 48 30 
 49 90 
 50 180 
 51 120 
 52 90 
 53 90 
 54 40 
 55 120 
 56 70 
 57 150 
 58 260 
 59 90 
 60 120 
 61 30 
 62 40 
 63 90 
 64 210 
 65 120 
 66 190 
 67 120 
 68 40 
 69 150 
 70 50 
 71 150 
 72 50 
 73 260 
 74 120 
 75 50 
 76 150 
 77 150 
 78 40 
 79 50 
 80 40 
 81 110 
 82 170 
 83 180 
 84 240 
 85 30 
 86 90 
 87 30 
 88 90 
 89 90 
 90 100 
 91 40 
 92 40 
 93 40 
 94 40 
 95 20 
 96 60 
 97 60 
 98 60 
 99 20 
 100 330 
 101 100 
 102 140 
 103 150 
 104 270 
 105 160 
 106 120 
 107 30 
 108 90 
 109 40 
 110 90 
 111 120 
 112 50 
 113 90 
 114 40 
 115 90 
 116 40 
 117 50 
 118 120 
 119 30 
 120 120 
 121 50 
 122 140 
 123 40 
 124 90 
 125 30 
 126 30 
 127 290 
 128 120 
 129 90 
 130 40 
 131 110 
 132 30 
 133 120 
 134 120 
 135 30 
 136 90 
 137 30 
 138 90 
 139 90 
 140 90 
 141 90 
 142 30 
 143 90 
 144 30 
 145 30 
 146 90 
 147 90 
 148 90 
 149 30 
 150 30 
 151 90 
 152 60 
 153 60 
 154 20 
 155 20 
 156 60 
 157 120 
 158 50 
 159 40 
 160 120 
 161 120 
 162 30 
 163 90 
 164 30 
 165 600 
 166 40 
 167 90 
 168 110 
 169 200 
 170 30 
 171 30 
 172 90 
 173 220 
 174 130 
 175 120 
 176 500 
 177 30 
 178 40 
 179 40 
 180 40 
 181 30 
 182 90 
 183 120 
 184 140 
 185 110 
 186 100 
 187 200 
 188 90 
 189 120 
 190 120 
 191 30 
 192 90 
 193 90 
 194 100 
 195 50 
 196 70 
 197 400 
 198 110 
 199 130 
 200 170 
 201 140 
 202 40 
 203 30 
 204 30 
 205 90 
 206 90 
 207 30 
 208 210 
 209 180 
EOF
